% Auto-generated by scripts/generate_dzn.py
% problem_type   = polyominoes
% instance       = polyominoes_72
% source_json    = instances_json/0_low_blowup/polyominoes_72.json
% blowup         = 0.6142857142857143
% representation = DFA

mode = 0;

size = 6;
tiles = 4;
n_expressions = 4;
Q = 93;
S = 5;
q0 = [1, 1, 1, 1];
F = [{19}, {56}, {70}, {62}];
weights = [4, 1, 4, 9, 8, 1, 5, 5, 3, 5, 7, 4, 6, 6, 3, 9, 8, 7, 4, 5, 7, 9, 9, 5, 5, 10, 3, 6, 2, 2, 6, 5, 6, 6, 3, 2];
d_dfa = array3d(1..4, 1..93, 1..5, [
  % k = 1
    2, 1, 1, 1, 1,
    3, 23, 23, 23, 23,
    5, 4, 4, 4, 4,
    23, 6, 6, 6, 6,
    23, 7, 7, 7, 7,
    23, 8, 8, 8, 8,
    23, 9, 9, 9, 9,
    23, 10, 10, 10, 10,
    23, 11, 11, 11, 11,
    23, 12, 12, 12, 12,
    23, 13, 13, 13, 13,
    14, 23, 23, 23, 23,
    15, 23, 23, 23, 23,
    16, 23, 23, 23, 23,
    17, 23, 23, 23, 23,
    23, 18, 18, 18, 18,
    19, 23, 23, 23, 23,
    23, 20, 20, 20, 20,
    23, 19, 19, 19, 19,
    23, 21, 21, 21, 21,
    23, 22, 22, 22, 22,
    23, 15, 15, 15, 15,
    23, 23, 23, 23, 23,
    0, 0, 0, 0, 0,
    0, 0, 0, 0, 0,
    0, 0, 0, 0, 0,
    0, 0, 0, 0, 0,
    0, 0, 0, 0, 0,
    0, 0, 0, 0, 0,
    0, 0, 0, 0, 0,
    0, 0, 0, 0, 0,
    0, 0, 0, 0, 0,
    0, 0, 0, 0, 0,
    0, 0, 0, 0, 0,
    0, 0, 0, 0, 0,
    0, 0, 0, 0, 0,
    0, 0, 0, 0, 0,
    0, 0, 0, 0, 0,
    0, 0, 0, 0, 0,
    0, 0, 0, 0, 0,
    0, 0, 0, 0, 0,
    0, 0, 0, 0, 0,
    0, 0, 0, 0, 0,
    0, 0, 0, 0, 0,
    0, 0, 0, 0, 0,
    0, 0, 0, 0, 0,
    0, 0, 0, 0, 0,
    0, 0, 0, 0, 0,
    0, 0, 0, 0, 0,
    0, 0, 0, 0, 0,
    0, 0, 0, 0, 0,
    0, 0, 0, 0, 0,
    0, 0, 0, 0, 0,
    0, 0, 0, 0, 0,
    0, 0, 0, 0, 0,
    0, 0, 0, 0, 0,
    0, 0, 0, 0, 0,
    0, 0, 0, 0, 0,
    0, 0, 0, 0, 0,
    0, 0, 0, 0, 0,
    0, 0, 0, 0, 0,
    0, 0, 0, 0, 0,
    0, 0, 0, 0, 0,
    0, 0, 0, 0, 0,
    0, 0, 0, 0, 0,
    0, 0, 0, 0, 0,
    0, 0, 0, 0, 0,
    0, 0, 0, 0, 0,
    0, 0, 0, 0, 0,
    0, 0, 0, 0, 0,
    0, 0, 0, 0, 0,
    0, 0, 0, 0, 0,
    0, 0, 0, 0, 0,
    0, 0, 0, 0, 0,
    0, 0, 0, 0, 0,
    0, 0, 0, 0, 0,
    0, 0, 0, 0, 0,
    0, 0, 0, 0, 0,
    0, 0, 0, 0, 0,
    0, 0, 0, 0, 0,
    0, 0, 0, 0, 0,
    0, 0, 0, 0, 0,
    0, 0, 0, 0, 0,
    0, 0, 0, 0, 0,
    0, 0, 0, 0, 0,
    0, 0, 0, 0, 0,
    0, 0, 0, 0, 0,
    0, 0, 0, 0, 0,
    0, 0, 0, 0, 0,
    0, 0, 0, 0, 0,
    0, 0, 0, 0, 0,
    0, 0, 0, 0, 0,
    0, 0, 0, 0, 0,

  % k = 2
    1, 2, 1, 1, 1,
    93, 3, 93, 93, 93,
    4, 5, 4, 4, 4,
    6, 7, 6, 6, 6,
    8, 9, 8, 8, 8,
    10, 93, 10, 10, 10,
    93, 11, 93, 93, 93,
    12, 93, 12, 12, 12,
    93, 13, 93, 93, 93,
    14, 93, 14, 14, 14,
    93, 15, 93, 93, 93,
    16, 93, 16, 16, 16,
    93, 17, 93, 93, 93,
    18, 93, 18, 18, 18,
    93, 19, 93, 93, 93,
    20, 93, 20, 20, 20,
    21, 93, 21, 21, 21,
    93, 22, 93, 93, 93,
    93, 23, 93, 93, 93,
    93, 24, 93, 93, 93,
    93, 25, 93, 93, 93,
    93, 26, 93, 93, 93,
    93, 27, 93, 93, 93,
    93, 28, 93, 93, 93,
    93, 29, 93, 93, 93,
    30, 15, 30, 30, 30,
    31, 93, 31, 31, 31,
    93, 32, 93, 93, 93,
    93, 33, 93, 93, 93,
    34, 93, 34, 34, 34,
    93, 35, 93, 93, 93,
    36, 93, 36, 36, 36,
    93, 37, 93, 93, 93,
    38, 93, 38, 38, 38,
    93, 39, 93, 93, 93,
    40, 93, 40, 40, 40,
    93, 41, 93, 93, 93,
    42, 93, 42, 42, 42,
    93, 43, 93, 93, 93,
    44, 93, 44, 44, 44,
    93, 45, 93, 93, 93,
    46, 93, 46, 46, 46,
    93, 47, 93, 93, 93,
    48, 93, 48, 48, 48,
    49, 93, 49, 49, 49,
    93, 50, 93, 93, 93,
    93, 51, 93, 93, 93,
    52, 53, 52, 52, 52,
    54, 51, 54, 54, 54,
    93, 55, 93, 93, 93,
    93, 56, 93, 93, 93,
    93, 53, 93, 93, 93,
    93, 57, 93, 93, 93,
    58, 93, 58, 58, 58,
    59, 93, 59, 59, 59,
    56, 93, 56, 56, 56,
    60, 93, 60, 60, 60,
    61, 93, 61, 61, 61,
    62, 93, 62, 62, 62,
    63, 93, 63, 63, 63,
    47, 93, 47, 47, 47,
    64, 93, 64, 64, 64,
    65, 93, 65, 65, 65,
    66, 93, 66, 66, 66,
    67, 93, 67, 67, 67,
    68, 93, 68, 68, 68,
    69, 93, 69, 69, 69,
    93, 70, 93, 93, 93,
    93, 71, 93, 93, 93,
    93, 72, 93, 93, 93,
    93, 73, 93, 93, 93,
    74, 93, 74, 74, 74,
    75, 93, 75, 75, 75,
    76, 93, 76, 76, 76,
    77, 93, 77, 77, 77,
    78, 93, 78, 78, 78,
    79, 93, 79, 79, 79,
    80, 93, 80, 80, 80,
    81, 93, 81, 81, 81,
    82, 83, 82, 82, 82,
    84, 93, 84, 84, 84,
    93, 83, 93, 93, 93,
    93, 85, 93, 93, 93,
    93, 86, 93, 93, 93,
    93, 87, 93, 93, 93,
    93, 88, 93, 93, 93,
    89, 93, 89, 89, 89,
    90, 93, 90, 90, 90,
    91, 93, 91, 91, 91,
    54, 93, 54, 54, 54,
    92, 93, 92, 92, 92,
    43, 93, 43, 43, 43,
    93, 93, 93, 93, 93,

  % k = 3
    1, 1, 2, 1, 1,
    4, 4, 3, 4, 4,
    6, 6, 5, 6, 6,
    7, 7, 71, 7, 7,
    71, 71, 8, 71, 71,
    9, 9, 71, 9, 9,
    10, 10, 71, 10, 10,
    11, 11, 71, 11, 11,
    12, 12, 71, 12, 12,
    13, 13, 71, 13, 13,
    14, 14, 71, 14, 14,
    16, 16, 15, 16, 16,
    17, 17, 71, 17, 17,
    18, 18, 71, 18, 18,
    71, 71, 19, 71, 71,
    20, 20, 71, 20, 20,
    21, 21, 71, 21, 21,
    23, 23, 22, 23, 23,
    71, 71, 22, 71, 71,
    71, 71, 24, 71, 71,
    71, 71, 25, 71, 71,
    71, 71, 26, 71, 71,
    27, 27, 71, 27, 27,
    71, 71, 28, 71, 71,
    29, 29, 71, 29, 29,
    30, 30, 71, 30, 30,
    71, 71, 31, 71, 71,
    71, 71, 32, 71, 71,
    33, 33, 71, 33, 33,
    34, 34, 71, 34, 34,
    71, 71, 30, 71, 71,
    71, 71, 35, 71, 71,
    36, 36, 71, 36, 36,
    35, 35, 71, 35, 35,
    37, 37, 71, 37, 37,
    39, 39, 38, 39, 39,
    40, 40, 71, 40, 40,
    71, 71, 41, 71, 71,
    42, 42, 71, 42, 42,
    43, 43, 71, 43, 43,
    71, 71, 44, 71, 71,
    46, 46, 45, 46, 46,
    71, 71, 47, 71, 71,
    71, 71, 48, 71, 71,
    71, 71, 49, 71, 71,
    71, 71, 50, 71, 71,
    51, 51, 71, 51, 51,
    52, 52, 71, 52, 52,
    53, 53, 71, 53, 53,
    71, 71, 54, 71, 71,
    55, 55, 71, 55, 55,
    56, 56, 71, 56, 56,
    57, 57, 71, 57, 57,
    59, 59, 58, 59, 59,
    60, 60, 71, 60, 60,
    61, 61, 71, 61, 61,
    59, 59, 71, 59, 59,
    71, 71, 56, 71, 71,
    62, 62, 71, 62, 62,
    63, 63, 71, 63, 63,
    64, 64, 71, 64, 64,
    65, 65, 71, 65, 65,
    66, 66, 71, 66, 66,
    67, 67, 71, 67, 67,
    71, 71, 68, 71, 71,
    69, 69, 71, 69, 69,
    71, 71, 69, 71, 71,
    71, 71, 67, 71, 71,
    71, 71, 70, 71, 71,
    70, 70, 71, 70, 70,
    71, 71, 71, 71, 71,
    0, 0, 0, 0, 0,
    0, 0, 0, 0, 0,
    0, 0, 0, 0, 0,
    0, 0, 0, 0, 0,
    0, 0, 0, 0, 0,
    0, 0, 0, 0, 0,
    0, 0, 0, 0, 0,
    0, 0, 0, 0, 0,
    0, 0, 0, 0, 0,
    0, 0, 0, 0, 0,
    0, 0, 0, 0, 0,
    0, 0, 0, 0, 0,
    0, 0, 0, 0, 0,
    0, 0, 0, 0, 0,
    0, 0, 0, 0, 0,
    0, 0, 0, 0, 0,
    0, 0, 0, 0, 0,
    0, 0, 0, 0, 0,
    0, 0, 0, 0, 0,
    0, 0, 0, 0, 0,
    0, 0, 0, 0, 0,
    0, 0, 0, 0, 0,

  % k = 4
    1, 1, 1, 2, 1,
    3, 3, 3, 4, 3,
    5, 5, 5, 71, 5,
    6, 6, 6, 7, 6,
    8, 8, 8, 71, 8,
    9, 9, 9, 71, 9,
    10, 10, 10, 11, 10,
    12, 12, 12, 71, 12,
    13, 13, 13, 71, 13,
    14, 14, 14, 71, 14,
    15, 15, 15, 71, 15,
    16, 16, 16, 71, 16,
    17, 17, 17, 71, 17,
    18, 18, 18, 71, 18,
    19, 19, 19, 71, 19,
    20, 20, 20, 71, 20,
    21, 21, 21, 71, 21,
    22, 22, 22, 71, 22,
    23, 23, 23, 71, 23,
    71, 71, 71, 24, 71,
    71, 71, 71, 25, 71,
    71, 71, 71, 26, 71,
    27, 27, 27, 28, 27,
    29, 29, 29, 71, 29,
    71, 71, 71, 30, 71,
    71, 71, 71, 31, 71,
    32, 32, 32, 71, 32,
    71, 71, 71, 33, 71,
    34, 34, 34, 71, 34,
    35, 35, 35, 71, 35,
    71, 71, 71, 36, 71,
    71, 71, 71, 28, 71,
    37, 37, 37, 71, 37,
    38, 38, 38, 71, 38,
    39, 39, 39, 71, 39,
    40, 40, 40, 71, 40,
    41, 41, 41, 71, 41,
    42, 42, 42, 71, 42,
    43, 43, 43, 71, 43,
    44, 44, 44, 71, 44,
    45, 45, 45, 71, 45,
    46, 46, 46, 47, 46,
    48, 48, 48, 49, 48,
    50, 50, 50, 71, 50,
    51, 51, 51, 71, 51,
    52, 52, 52, 71, 52,
    71, 71, 71, 53, 71,
    54, 54, 54, 71, 54,
    71, 71, 71, 55, 71,
    56, 56, 56, 71, 56,
    55, 55, 55, 71, 55,
    71, 71, 71, 47, 71,
    71, 71, 71, 57, 71,
    71, 71, 71, 49, 71,
    71, 71, 71, 58, 71,
    59, 59, 59, 60, 59,
    61, 61, 61, 71, 61,
    71, 71, 71, 62, 71,
    63, 63, 63, 71, 63,
    64, 64, 64, 71, 64,
    65, 65, 65, 71, 65,
    62, 62, 62, 71, 62,
    71, 71, 71, 60, 71,
    66, 66, 66, 71, 66,
    67, 67, 67, 71, 67,
    68, 68, 68, 71, 68,
    49, 49, 49, 71, 49,
    69, 69, 69, 71, 69,
    70, 70, 70, 71, 70,
    58, 58, 58, 71, 58,
    71, 71, 71, 71, 71,
    0, 0, 0, 0, 0,
    0, 0, 0, 0, 0,
    0, 0, 0, 0, 0,
    0, 0, 0, 0, 0,
    0, 0, 0, 0, 0,
    0, 0, 0, 0, 0,
    0, 0, 0, 0, 0,
    0, 0, 0, 0, 0,
    0, 0, 0, 0, 0,
    0, 0, 0, 0, 0,
    0, 0, 0, 0, 0,
    0, 0, 0, 0, 0,
    0, 0, 0, 0, 0,
    0, 0, 0, 0, 0,
    0, 0, 0, 0, 0,
    0, 0, 0, 0, 0,
    0, 0, 0, 0, 0,
    0, 0, 0, 0, 0,
    0, 0, 0, 0, 0,
    0, 0, 0, 0, 0,
    0, 0, 0, 0, 0,
    0, 0, 0, 0, 0
]);
d_nfa = array3d(1..4, 1..93, 1..5, [
  % k = 1
    {}, {}, {}, {}, {},
    {}, {}, {}, {}, {},
    {}, {}, {}, {}, {},
    {}, {}, {}, {}, {},
    {}, {}, {}, {}, {},
    {}, {}, {}, {}, {},
    {}, {}, {}, {}, {},
    {}, {}, {}, {}, {},
    {}, {}, {}, {}, {},
    {}, {}, {}, {}, {},
    {}, {}, {}, {}, {},
    {}, {}, {}, {}, {},
    {}, {}, {}, {}, {},
    {}, {}, {}, {}, {},
    {}, {}, {}, {}, {},
    {}, {}, {}, {}, {},
    {}, {}, {}, {}, {},
    {}, {}, {}, {}, {},
    {}, {}, {}, {}, {},
    {}, {}, {}, {}, {},
    {}, {}, {}, {}, {},
    {}, {}, {}, {}, {},
    {}, {}, {}, {}, {},
    {}, {}, {}, {}, {},
    {}, {}, {}, {}, {},
    {}, {}, {}, {}, {},
    {}, {}, {}, {}, {},
    {}, {}, {}, {}, {},
    {}, {}, {}, {}, {},
    {}, {}, {}, {}, {},
    {}, {}, {}, {}, {},
    {}, {}, {}, {}, {},
    {}, {}, {}, {}, {},
    {}, {}, {}, {}, {},
    {}, {}, {}, {}, {},
    {}, {}, {}, {}, {},
    {}, {}, {}, {}, {},
    {}, {}, {}, {}, {},
    {}, {}, {}, {}, {},
    {}, {}, {}, {}, {},
    {}, {}, {}, {}, {},
    {}, {}, {}, {}, {},
    {}, {}, {}, {}, {},
    {}, {}, {}, {}, {},
    {}, {}, {}, {}, {},
    {}, {}, {}, {}, {},
    {}, {}, {}, {}, {},
    {}, {}, {}, {}, {},
    {}, {}, {}, {}, {},
    {}, {}, {}, {}, {},
    {}, {}, {}, {}, {},
    {}, {}, {}, {}, {},
    {}, {}, {}, {}, {},
    {}, {}, {}, {}, {},
    {}, {}, {}, {}, {},
    {}, {}, {}, {}, {},
    {}, {}, {}, {}, {},
    {}, {}, {}, {}, {},
    {}, {}, {}, {}, {},
    {}, {}, {}, {}, {},
    {}, {}, {}, {}, {},
    {}, {}, {}, {}, {},
    {}, {}, {}, {}, {},
    {}, {}, {}, {}, {},
    {}, {}, {}, {}, {},
    {}, {}, {}, {}, {},
    {}, {}, {}, {}, {},
    {}, {}, {}, {}, {},
    {}, {}, {}, {}, {},
    {}, {}, {}, {}, {},
    {}, {}, {}, {}, {},
    {}, {}, {}, {}, {},
    {}, {}, {}, {}, {},
    {}, {}, {}, {}, {},
    {}, {}, {}, {}, {},
    {}, {}, {}, {}, {},
    {}, {}, {}, {}, {},
    {}, {}, {}, {}, {},
    {}, {}, {}, {}, {},
    {}, {}, {}, {}, {},
    {}, {}, {}, {}, {},
    {}, {}, {}, {}, {},
    {}, {}, {}, {}, {},
    {}, {}, {}, {}, {},
    {}, {}, {}, {}, {},
    {}, {}, {}, {}, {},
    {}, {}, {}, {}, {},
    {}, {}, {}, {}, {},
    {}, {}, {}, {}, {},
    {}, {}, {}, {}, {},
    {}, {}, {}, {}, {},
    {}, {}, {}, {}, {},
    {}, {}, {}, {}, {},

  % k = 2
    {}, {}, {}, {}, {},
    {}, {}, {}, {}, {},
    {}, {}, {}, {}, {},
    {}, {}, {}, {}, {},
    {}, {}, {}, {}, {},
    {}, {}, {}, {}, {},
    {}, {}, {}, {}, {},
    {}, {}, {}, {}, {},
    {}, {}, {}, {}, {},
    {}, {}, {}, {}, {},
    {}, {}, {}, {}, {},
    {}, {}, {}, {}, {},
    {}, {}, {}, {}, {},
    {}, {}, {}, {}, {},
    {}, {}, {}, {}, {},
    {}, {}, {}, {}, {},
    {}, {}, {}, {}, {},
    {}, {}, {}, {}, {},
    {}, {}, {}, {}, {},
    {}, {}, {}, {}, {},
    {}, {}, {}, {}, {},
    {}, {}, {}, {}, {},
    {}, {}, {}, {}, {},
    {}, {}, {}, {}, {},
    {}, {}, {}, {}, {},
    {}, {}, {}, {}, {},
    {}, {}, {}, {}, {},
    {}, {}, {}, {}, {},
    {}, {}, {}, {}, {},
    {}, {}, {}, {}, {},
    {}, {}, {}, {}, {},
    {}, {}, {}, {}, {},
    {}, {}, {}, {}, {},
    {}, {}, {}, {}, {},
    {}, {}, {}, {}, {},
    {}, {}, {}, {}, {},
    {}, {}, {}, {}, {},
    {}, {}, {}, {}, {},
    {}, {}, {}, {}, {},
    {}, {}, {}, {}, {},
    {}, {}, {}, {}, {},
    {}, {}, {}, {}, {},
    {}, {}, {}, {}, {},
    {}, {}, {}, {}, {},
    {}, {}, {}, {}, {},
    {}, {}, {}, {}, {},
    {}, {}, {}, {}, {},
    {}, {}, {}, {}, {},
    {}, {}, {}, {}, {},
    {}, {}, {}, {}, {},
    {}, {}, {}, {}, {},
    {}, {}, {}, {}, {},
    {}, {}, {}, {}, {},
    {}, {}, {}, {}, {},
    {}, {}, {}, {}, {},
    {}, {}, {}, {}, {},
    {}, {}, {}, {}, {},
    {}, {}, {}, {}, {},
    {}, {}, {}, {}, {},
    {}, {}, {}, {}, {},
    {}, {}, {}, {}, {},
    {}, {}, {}, {}, {},
    {}, {}, {}, {}, {},
    {}, {}, {}, {}, {},
    {}, {}, {}, {}, {},
    {}, {}, {}, {}, {},
    {}, {}, {}, {}, {},
    {}, {}, {}, {}, {},
    {}, {}, {}, {}, {},
    {}, {}, {}, {}, {},
    {}, {}, {}, {}, {},
    {}, {}, {}, {}, {},
    {}, {}, {}, {}, {},
    {}, {}, {}, {}, {},
    {}, {}, {}, {}, {},
    {}, {}, {}, {}, {},
    {}, {}, {}, {}, {},
    {}, {}, {}, {}, {},
    {}, {}, {}, {}, {},
    {}, {}, {}, {}, {},
    {}, {}, {}, {}, {},
    {}, {}, {}, {}, {},
    {}, {}, {}, {}, {},
    {}, {}, {}, {}, {},
    {}, {}, {}, {}, {},
    {}, {}, {}, {}, {},
    {}, {}, {}, {}, {},
    {}, {}, {}, {}, {},
    {}, {}, {}, {}, {},
    {}, {}, {}, {}, {},
    {}, {}, {}, {}, {},
    {}, {}, {}, {}, {},
    {}, {}, {}, {}, {},

  % k = 3
    {}, {}, {}, {}, {},
    {}, {}, {}, {}, {},
    {}, {}, {}, {}, {},
    {}, {}, {}, {}, {},
    {}, {}, {}, {}, {},
    {}, {}, {}, {}, {},
    {}, {}, {}, {}, {},
    {}, {}, {}, {}, {},
    {}, {}, {}, {}, {},
    {}, {}, {}, {}, {},
    {}, {}, {}, {}, {},
    {}, {}, {}, {}, {},
    {}, {}, {}, {}, {},
    {}, {}, {}, {}, {},
    {}, {}, {}, {}, {},
    {}, {}, {}, {}, {},
    {}, {}, {}, {}, {},
    {}, {}, {}, {}, {},
    {}, {}, {}, {}, {},
    {}, {}, {}, {}, {},
    {}, {}, {}, {}, {},
    {}, {}, {}, {}, {},
    {}, {}, {}, {}, {},
    {}, {}, {}, {}, {},
    {}, {}, {}, {}, {},
    {}, {}, {}, {}, {},
    {}, {}, {}, {}, {},
    {}, {}, {}, {}, {},
    {}, {}, {}, {}, {},
    {}, {}, {}, {}, {},
    {}, {}, {}, {}, {},
    {}, {}, {}, {}, {},
    {}, {}, {}, {}, {},
    {}, {}, {}, {}, {},
    {}, {}, {}, {}, {},
    {}, {}, {}, {}, {},
    {}, {}, {}, {}, {},
    {}, {}, {}, {}, {},
    {}, {}, {}, {}, {},
    {}, {}, {}, {}, {},
    {}, {}, {}, {}, {},
    {}, {}, {}, {}, {},
    {}, {}, {}, {}, {},
    {}, {}, {}, {}, {},
    {}, {}, {}, {}, {},
    {}, {}, {}, {}, {},
    {}, {}, {}, {}, {},
    {}, {}, {}, {}, {},
    {}, {}, {}, {}, {},
    {}, {}, {}, {}, {},
    {}, {}, {}, {}, {},
    {}, {}, {}, {}, {},
    {}, {}, {}, {}, {},
    {}, {}, {}, {}, {},
    {}, {}, {}, {}, {},
    {}, {}, {}, {}, {},
    {}, {}, {}, {}, {},
    {}, {}, {}, {}, {},
    {}, {}, {}, {}, {},
    {}, {}, {}, {}, {},
    {}, {}, {}, {}, {},
    {}, {}, {}, {}, {},
    {}, {}, {}, {}, {},
    {}, {}, {}, {}, {},
    {}, {}, {}, {}, {},
    {}, {}, {}, {}, {},
    {}, {}, {}, {}, {},
    {}, {}, {}, {}, {},
    {}, {}, {}, {}, {},
    {}, {}, {}, {}, {},
    {}, {}, {}, {}, {},
    {}, {}, {}, {}, {},
    {}, {}, {}, {}, {},
    {}, {}, {}, {}, {},
    {}, {}, {}, {}, {},
    {}, {}, {}, {}, {},
    {}, {}, {}, {}, {},
    {}, {}, {}, {}, {},
    {}, {}, {}, {}, {},
    {}, {}, {}, {}, {},
    {}, {}, {}, {}, {},
    {}, {}, {}, {}, {},
    {}, {}, {}, {}, {},
    {}, {}, {}, {}, {},
    {}, {}, {}, {}, {},
    {}, {}, {}, {}, {},
    {}, {}, {}, {}, {},
    {}, {}, {}, {}, {},
    {}, {}, {}, {}, {},
    {}, {}, {}, {}, {},
    {}, {}, {}, {}, {},
    {}, {}, {}, {}, {},
    {}, {}, {}, {}, {},

  % k = 4
    {}, {}, {}, {}, {},
    {}, {}, {}, {}, {},
    {}, {}, {}, {}, {},
    {}, {}, {}, {}, {},
    {}, {}, {}, {}, {},
    {}, {}, {}, {}, {},
    {}, {}, {}, {}, {},
    {}, {}, {}, {}, {},
    {}, {}, {}, {}, {},
    {}, {}, {}, {}, {},
    {}, {}, {}, {}, {},
    {}, {}, {}, {}, {},
    {}, {}, {}, {}, {},
    {}, {}, {}, {}, {},
    {}, {}, {}, {}, {},
    {}, {}, {}, {}, {},
    {}, {}, {}, {}, {},
    {}, {}, {}, {}, {},
    {}, {}, {}, {}, {},
    {}, {}, {}, {}, {},
    {}, {}, {}, {}, {},
    {}, {}, {}, {}, {},
    {}, {}, {}, {}, {},
    {}, {}, {}, {}, {},
    {}, {}, {}, {}, {},
    {}, {}, {}, {}, {},
    {}, {}, {}, {}, {},
    {}, {}, {}, {}, {},
    {}, {}, {}, {}, {},
    {}, {}, {}, {}, {},
    {}, {}, {}, {}, {},
    {}, {}, {}, {}, {},
    {}, {}, {}, {}, {},
    {}, {}, {}, {}, {},
    {}, {}, {}, {}, {},
    {}, {}, {}, {}, {},
    {}, {}, {}, {}, {},
    {}, {}, {}, {}, {},
    {}, {}, {}, {}, {},
    {}, {}, {}, {}, {},
    {}, {}, {}, {}, {},
    {}, {}, {}, {}, {},
    {}, {}, {}, {}, {},
    {}, {}, {}, {}, {},
    {}, {}, {}, {}, {},
    {}, {}, {}, {}, {},
    {}, {}, {}, {}, {},
    {}, {}, {}, {}, {},
    {}, {}, {}, {}, {},
    {}, {}, {}, {}, {},
    {}, {}, {}, {}, {},
    {}, {}, {}, {}, {},
    {}, {}, {}, {}, {},
    {}, {}, {}, {}, {},
    {}, {}, {}, {}, {},
    {}, {}, {}, {}, {},
    {}, {}, {}, {}, {},
    {}, {}, {}, {}, {},
    {}, {}, {}, {}, {},
    {}, {}, {}, {}, {},
    {}, {}, {}, {}, {},
    {}, {}, {}, {}, {},
    {}, {}, {}, {}, {},
    {}, {}, {}, {}, {},
    {}, {}, {}, {}, {},
    {}, {}, {}, {}, {},
    {}, {}, {}, {}, {},
    {}, {}, {}, {}, {},
    {}, {}, {}, {}, {},
    {}, {}, {}, {}, {},
    {}, {}, {}, {}, {},
    {}, {}, {}, {}, {},
    {}, {}, {}, {}, {},
    {}, {}, {}, {}, {},
    {}, {}, {}, {}, {},
    {}, {}, {}, {}, {},
    {}, {}, {}, {}, {},
    {}, {}, {}, {}, {},
    {}, {}, {}, {}, {},
    {}, {}, {}, {}, {},
    {}, {}, {}, {}, {},
    {}, {}, {}, {}, {},
    {}, {}, {}, {}, {},
    {}, {}, {}, {}, {},
    {}, {}, {}, {}, {},
    {}, {}, {}, {}, {},
    {}, {}, {}, {}, {},
    {}, {}, {}, {}, {},
    {}, {}, {}, {}, {},
    {}, {}, {}, {}, {},
    {}, {}, {}, {}, {},
    {}, {}, {}, {}, {},
    {}, {}, {}, {}, {}
]);
